# 5663
param k := 6;
param n := 50;
param s := 1;
set E :=  (0,4) (1,27) (1,38) (1,39) (2,21) (2,30) (2,31) (3,5) (3,23) (4,11) (4,21) (4,47) (5,42) (6,10) (6,17) (7,37) (8,14) (8,16) (8,19) (8,36) (8,41) (9,27) (9,34) (11,42) (12,46) (13,31) (13,48) (14,32) (15,30) (17,48) (18,23) (18,25) (19,38) (20,35) (20,40) (20,47) (22,43) (23,48) (24,33) (24,48) (25,34) (25,36) (26,35) (27,36) (27,42) (28,46) (29,42) (32,36) (32,38) (34,37) (36,49) (37,42) (37,45) (38,46) (39,43) (39,44) (40,46) (41,47) (43,44) (43,46);